\ENCODING=ISO-8859-1
\Problem name: 

Maximize
 obj: U
Subject To
 Prob: x0 + x1 + x2 + x3 + x4 + x5 + x6  = 1
 c0:   - 3.52601187308933 x0 - 7.05202374617865 x1 - 3.52601187308933 x2
       - 0.881502968272331 x3 - 3.52601187308933 x4 - 0.881502968272331 x5
       - 1.76300593654466 x6 - U >= 0
 c1:   - 0.484338604142262 x0 - 0.968677208284524 x1 - 0.484338604142262 x2
       - 0.121084651035566 x3 - 0.484338604142262 x4 - 0.121084651035566 x5
       - 0.242169302071131 x6 - U >= 0
 c2:   - 5.18368655733864 x0 - 0.64796081966733 x1 - 5.18368655733864 x2
       - 1.29592163933466 x3 - 1.29592163933466 x4 - 5.18368655733864 x5
       - 2.59184327866932 x6 - U >= 0
 c3:   - 7.05202374617865 x0 - 7.05202374617865 x1 - 0.881502968272331 x2
       - 3.52601187308933 x3 - 0.881502968272331 x4 - 0.881502968272331 x5
       - 0.881502968272331 x6 - U >= 0
 c4:   - 7.05202374617865 x0 - 7.05202374617865 x1 - 0.881502968272331 x2
       - 3.52601187308933 x3 - 0.881502968272331 x4 - 0.881502968272331 x5
       - 0.881502968272331 x6 - U >= 0
 c5:   - 7.05202374617865 x0 - 7.05202374617865 x1 - 0.881502968272331 x2
       - 3.52601187308933 x3 - 0.881502968272331 x4 - 0.881502968272331 x5
       - 0.881502968272331 x6 - U >= 0
 c6:   - 7.05202374617865 x0 - 7.05202374617865 x1 - 0.881502968272331 x2
       - 3.52601187308933 x3 - 0.881502968272331 x4 - 0.881502968272331 x5
       - 0.881502968272331 x6 - U >= 0
 c7:   - 7.05202374617865 x0 - 7.05202374617865 x1 - 0.881502968272331 x2
       - 3.52601187308933 x3 - 0.881502968272331 x4 - 0.881502968272331 x5
       - 0.881502968272331 x6 - U >= 0
 c8:   - 7.05202374617865 x0 - 7.05202374617865 x1 - 0.881502968272331 x2
       - 3.52601187308933 x3 - 0.881502968272331 x4 - 0.881502968272331 x5
       - 0.881502968272331 x6 - U >= 0
Bounds
 0 <= x0 <= 1
 0 <= x1 <= 1
 0 <= x2 <= 1
 0 <= x3 <= 1
 0 <= x4 <= 1
 0 <= x5 <= 1
 0 <= x6 <= 1
      U Free
End
